
******************************************************************************
This program contains Ipopt, a library for large-scale nonlinear optimization.
 Ipopt is released as open source code under the Eclipse Public License (EPL).
         For more information visit http://projects.coin-or.org/Ipopt
******************************************************************************

This is Ipopt version 3.12.6, running with linear solver ma57.

Number of nonzeros in equality constraint Jacobian...:     2891
Number of nonzeros in inequality constraint Jacobian.:      391
Number of nonzeros in Lagrangian Hessian.............:      576

Reallocating memory for MA57: lfact (29804)
Reallocating memory for MA57: lfact (44756)
Reallocating memory for MA57: lfact (64009)
Reallocating memory for MA57: lfact (349184)
Reallocating memory for MA57: lfact (487475)
Total number of variables............................:      581
                     variables with only lower bounds:        0
                variables with lower and upper bounds:        0
                     variables with only upper bounds:        0
Total number of equality constraints.................:      578
Total number of inequality constraints...............:      196
        inequality constraints with only lower bounds:        0
   inequality constraints with lower and upper bounds:        0
        inequality constraints with only upper bounds:      196

iter    objective    inf_pr   inf_du lg(mu)  ||d||  lg(rg) alpha_du alpha_pr  ls
   0  1.4705486e+03 3.56e+00 1.08e+01  -1.0 0.00e+00    -  0.00e+00 0.00e+00   0
   1  7.1063666e+01 1.03e+03 1.60e+04  -1.0 4.46e+00    -  1.00e+00 1.00e+00f  1
Reallocating memory for MA57: lfact (532989)
   2  7.1918088e+01 9.63e+02 1.45e+04  -1.0 1.74e+01    -  5.70e-02 6.29e-02h  1
   3  3.0907183e+02 2.40e+02 6.35e+05  -1.0 2.55e+01    -  7.88e-02 1.00e+00h  1
   4  4.4957171e+02 5.98e+01 2.80e+05  -1.0 1.01e+01    -  2.42e-01 1.00e+00h  1
   5  5.1659131e+02 3.16e+01 1.18e+05  -1.0 2.68e+01    -  1.00e+00 5.44e-01h  1
   6  5.6651477e+02 1.73e+01 4.85e+04  -1.0 1.62e+01    -  1.00e+00 5.16e-01h  1
   7  5.8276331e+02 1.41e+01 3.75e+04  -1.0 1.13e+01    -  1.00e+00 1.96e-01h  1
   8  6.8601532e+02 3.29e+00 5.41e+04  -1.0 9.46e+00    -  8.59e-01 1.00e+00h  1
   9  7.2460457e+02 1.06e+00 2.80e+04  -1.0 1.55e+00    -  1.00e+00 8.02e-01h  1
iter    objective    inf_pr   inf_du lg(mu)  ||d||  lg(rg) alpha_du alpha_pr  ls
  10  7.4697460e+02 1.32e-01 1.55e+04  -1.0 8.17e-01    -  1.00e+00 1.00e+00h  1
  11  7.4950103e+02 3.40e-02 4.54e+03  -2.5 1.59e-01    -  1.00e+00 7.64e-01h  1
  12  7.5045658e+02 1.85e-04 1.21e+02  -2.5 4.23e-02    -  1.00e+00 1.00e+00h  1
  13  7.5045922e+02 2.66e-15 4.86e-02  -3.8 3.14e-04    -  1.00e+00 1.00e+00h  1
  14  7.5045895e+02 3.55e-15 1.28e-04  -5.7 7.52e-06    -  1.00e+00 1.00e+00h  1
  15  7.5045895e+02 2.66e-15 1.59e-03  -8.6 9.63e-08    -  1.00e+00 1.00e+00h  1
  16  7.5045895e+02 2.66e-15 1.22e-03  -9.0 8.40e-11    -  1.00e+00 1.00e+00h  1
  17  7.5045895e+02 2.66e-15 6.10e-04  -9.0 7.10e-15    -  1.00e+00 1.00e+00   0
  18  7.5045895e+02 2.66e-15 1.07e-06  -9.0 2.46e-15    -  1.00e+00 1.00e+00T  0

Number of Iterations....: 18

                                   (scaled)                 (unscaled)
Objective...............:   7.5045894565714161e+02    7.5045894565714161e+02
Dual infeasibility......:   1.0728836059570312e-06    1.0728836059570312e-06
Constraint violation....:   6.0715321659188248e-17    2.6645352591003761e-15
Complementarity.........:   9.0909090909091758e-10    9.0909090909091758e-10
Overall NLP error.......:   9.0909090909091758e-10    1.0728836059570312e-06


Number of objective function evaluations             = 19
Number of objective gradient evaluations             = 19
Number of equality constraint evaluations            = 19
Number of inequality constraint evaluations          = 19
Number of equality constraint Jacobian evaluations   = 19
Number of inequality constraint Jacobian evaluations = 19
Number of Lagrangian Hessian evaluations             = 19
Total CPU secs in IPOPT (w/o function evaluations)   =      0.223
Total CPU secs in NLP function evaluations           =      0.007

EXIT: Search Direction is becoming Too Small.

************************ CUTEst statistics ************************


 Package used            :  IPOPT
 Problem                 :  SAWPATH   
 # variables             =             583
 # constraints           =             774
 # objective functions   =        0.3900000E+02
 # objective gradients   =        0.2000000E+02
 # objective Hessians    =        0.2000000E+02
 # Hessian-vector prdct  =        0.0000000E+00
 # constraints functions =        0.4000000E+02
 # constraints gradients =        0.2100000E+02
 # constraints Hessians  =        0.2000000E+02
 Exit code               =               3
 Final f                 =   0.7504589E+03
 Set up time             =            0.02 seconds
 Solve time              =            0.45 seconds


******************************************************************

System Time =       0.1749999970 s.
